
set I:= 2	3	4 5 6	7 	8	9	10	11 12 13	14	15 16	17	18	19	20 21 22 ;
set Nodos:= 1 2	3	4 5 6	7 	8	9	10	11 12 13	14	15 16	17	18	19	20 21 22 ;
set K:= 1 2 3;
set R:= A B C;
set T:= A B C;

#param N := 22;

param: xcoord	ycoord :=
1	145	215
2	151	264
3	159	261
4	130	254
5	128	252
6	163	247
7	146	246
8	161	242
9	142	239
10	163	236
11	148	232
12	128	231
13	156	217
14	129	214
15	146	208
16	164	208
17	141	206
18	147	193
19	164	193
20	129	189
21	155	185
22	139	182
;

param Q:=
1   10000
2   15000
3   20000
;

param P:=
A   6000
B   5000
C   0000
;


param alfa:=
A   1.0
B    .70
C    .30
;

param q:  A   B   C:=
1	0	0	0
2	1100	0	0
3	0	700	0
4	0	0	800
5	1400	0	0
6	0	2100	0
7	0	0	400
8	800	0	0
9	0	100	0
10	0	0	500
11	600	0	0
12	0	1200	0
13	0	0	1300
14	1300	0	0
15	0	300	0
16	0	0	900
17	2100	0	0
18	0	1000	0
19	0	0	900
20	2500	0	0
21	0	1800	0
22	0	0	700
;

param a:  A   B   C:=
1	0	0	0
2	1	0	0
3	0	1	0
4	0	0	1
5	1	0	0
6	0	1	0
7	0	0	1
8	1	0	0
9	0	1	0
10	0	0	1
11	1	0	0
12	0	1	0
13	0	0	1
14	1	0	0
15	0	1	0
16	0	0	1
17	1	0	0
18	0	1	0
19	0	0	1
20	1	0	0
21	0	1	0
22	0	0	1


;

param qu :=
1   0
2	1100
3	700
4	800
5	1400
6	2100
7	400
8	800
9	100
10	500
11	600
12	1200
13	1300
14	1300
15	300
16	900
17	2100
18	1000
19	900
20	2500
21	1800
22	700

;

set IT:=

(	2	,	A	)
(	3	,	B	)
(	4	,	C	)
(	5	,	A	)
(	6	,	B	)
(	7	,	C	)
(	8	,	A	)
(	9	,	B	)
(	10	,	C	)
(	11	,	A	)
(	12	,	B	)
(	13	,	C	)
(	14	,	A	)
(	15	,	B	)
(	16	,	C	)
(	17	,	A	)
(	18	,	B	)
(	19	,	C	)
(	20	,	A	)
(	21	,	B	)
(	22	,	C	)
;